%%% static parameters %%%
timespan = 1;
Fact = [4];
Distr1 = [15];
Distr2 = [20];
Clients_N = [300];
Demand_W = [15];
Lt0 = [4];
Lt1 = [4];
SS_ = [0.85];
DS_D = [8];
K = [200];
MA = [500];
%%% dynamic parameters %%%
lost_ratio_sales_ret_th = 0.17002608594391072;
lost_ratio_sales_ret_w = 42;
lost_ratio_sales_dis_th = 0.19058632446680335;
lost_ratio_sales_dis_w = 38;
lost_ratio_sales_fac_th = 0.08073627152046177;
lost_ratio_sales_fac_w = 45;
stock_customer_MA_mean_relative_th = 0.9997817242862636;
stock_customer_MA_mean_relative_w = 77;
stock_distributor_MA_mean_relative_th = 0.2736249011613553;
stock_distributor_MA_mean_relative_w = 15;
stock_retailer_MA_mean_relative_th = 0.3666755113836976;
stock_retailer_MA_mean_relative_w = 1;
stock_factory_MA_mean_relative_th = 0.26348152768603095;
stock_factory_MA_mean_relative_w = 49;
